c 221_3_checker_6cl.cnf
c
c field = 221
c formula set type = 3_checker_6cl
c
p cnf 6 14
434 
436 
438 
-433 
-430 
-442 
435 
437 
439 
-432 
-431 
-443 
434 
436 
438 
-443 
-432 
-444 
435 
437 
439 
-442 
-433 
-445 
436 
438 
442 
-435 
-432 
-444 
437 
439 
443 
-434 
-433 
-445 
436 
438 
442 
-445 
-434 
-446 
437 
439 
443 
-444 
-435 
-447 
438 
442 
444 
-437 
-434 
-446 
439 
443 
445 
-436 
-435 
-447 
438 
442 
444 
-447 
-436 
-448 
439 
443 
445 
-446 
-437 
-449 
442 
444 
446 
-439 
-436 
-448 
443 
445 
447 
-438 
-437 
-449 
